p cnf 20 46
a 1 0
e 2 3 4 5 6 7 8 9 10 11 12 13 14 15 16 17 18 19 20 0
4 2 0
4 3 0
-2 -3 -4 0
-5 1 0
-5 -4 0
-1 4 5 0
-7 4 0
-7 -6 0
-4 6 7 0
-8 5 0
-8 -7 0
-5 7 8 0
-11 -9 0
-11 10 0
9 -10 11 0
-12 3 0
-12 -6 0
-3 6 12 0
-12 -13 -14 0
12 13 -14 0
-12 13 14 0
12 -13 14 0
-15 -11 0
-15 -14 0
11 14 15 0
-8 -15 -16 0
8 15 -16 0
-8 15 16 0
8 -15 16 0
-4 -17 -18 0
4 17 -18 0
-4 17 18 0
4 -17 18 0
-18 17 -19 0
18 -17 -19 0
-18 -17 19 0
18 17 19 0
-16 -19 -20 0
16 19 -20 0
-16 19 20 0
16 -19 20 0
-2 11 14 9 0
1 12 20 5 -9 15 0
-17 -10 16 14 0
-13 7 -15 10 -9 0
20 0
